p cnf 100 435
1 2 3 4 5 0
6 7 8 9 10 0
11 12 13 14 15 0
16 17 18 19 20 0
21 22 23 24 25 0
26 27 28 29 30 0
31 32 33 34 35 0
36 37 38 39 40 0
41 42 43 44 45 0
46 47 48 49 50 0
51 52 53 54 55 0
56 57 58 59 60 0
61 62 63 64 65 0
66 67 68 69 70 0
71 72 73 74 75 0
76 77 78 79 80 0
81 82 83 84 85 0
86 87 88 89 90 0
91 92 93 94 95 0
96 97 98 99 100 0
-1 -6 0
-2 -7 0
-3 -8 0
-4 -9 0
-5 -10 0
-1 -31 0
-2 -32 0
-3 -33 0
-4 -34 0
-5 -35 0
-1 -36 0
-2 -37 0
-3 -38 0
-4 -39 0
-5 -40 0
-1 -56 0
-2 -57 0
-3 -58 0
-4 -59 0
-5 -60 0
-1 -61 0
-2 -62 0
-3 -63 0
-4 -64 0
-5 -65 0
-1 -66 0
-2 -67 0
-3 -68 0
-4 -69 0
-5 -70 0
-1 -76 0
-2 -77 0
-3 -78 0
-4 -79 0
-5 -80 0
-1 -81 0
-2 -82 0
-3 -83 0
-4 -84 0
-5 -85 0
-1 -96 0
-2 -97 0
-3 -98 0
-4 -99 0
-5 -100 0
-6 -11 0
-7 -12 0
-8 -13 0
-9 -14 0
-10 -15 0
-6 -36 0
-7 -37 0
-8 -38 0
-9 -39 0
-10 -40 0
-6 -46 0
-7 -47 0
-8 -48 0
-9 -49 0
-10 -50 0
-6 -51 0
-7 -52 0
-8 -53 0
-9 -54 0
-10 -55 0
-6 -56 0
-7 -57 0
-8 -58 0
-9 -59 0
-10 -60 0
-6 -61 0
-7 -62 0
-8 -63 0
-9 -64 0
-10 -65 0
-6 -66 0
-7 -67 0
-8 -68 0
-9 -69 0
-10 -70 0
-6 -76 0
-7 -77 0
-8 -78 0
-9 -79 0
-10 -80 0
-11 -16 0
-12 -17 0
-13 -18 0
-14 -19 0
-15 -20 0
-11 -36 0
-12 -37 0
-13 -38 0
-14 -39 0
-15 -40 0
-11 -41 0
-12 -42 0
-13 -43 0
-14 -44 0
-15 -45 0
-11 -46 0
-12 -47 0
-13 -48 0
-14 -49 0
-15 -50 0
-11 -51 0
-12 -52 0
-13 -53 0
-14 -54 0
-15 -55 0
-11 -61 0
-12 -62 0
-13 -63 0
-14 -64 0
-15 -65 0
-11 -66 0
-12 -67 0
-13 -68 0
-14 -69 0
-15 -70 0
-11 -71 0
-12 -72 0
-13 -73 0
-14 -74 0
-15 -75 0
-11 -76 0
-12 -77 0
-13 -78 0
-14 -79 0
-15 -80 0
-11 -86 0
-12 -87 0
-13 -88 0
-14 -89 0
-15 -90 0
-11 -96 0
-12 -97 0
-13 -98 0
-14 -99 0
-15 -100 0
-16 -21 0
-17 -22 0
-18 -23 0
-19 -24 0
-20 -25 0
-16 -26 0
-17 -27 0
-18 -28 0
-19 -29 0
-20 -30 0
-16 -36 0
-17 -37 0
-18 -38 0
-19 -39 0
-20 -40 0
-16 -41 0
-17 -42 0
-18 -43 0
-19 -44 0
-20 -45 0
-16 -46 0
-17 -47 0
-18 -48 0
-19 -49 0
-20 -50 0
-16 -56 0
-17 -57 0
-18 -58 0
-19 -59 0
-20 -60 0
-16 -66 0
-17 -67 0
-18 -68 0
-19 -69 0
-20 -70 0
-16 -81 0
-17 -82 0
-18 -83 0
-19 -84 0
-20 -85 0
-16 -91 0
-17 -92 0
-18 -93 0
-19 -94 0
-20 -95 0
-21 -31 0
-22 -32 0
-23 -33 0
-24 -34 0
-25 -35 0
-21 -36 0
-22 -37 0
-23 -38 0
-24 -39 0
-25 -40 0
-21 -51 0
-22 -52 0
-23 -53 0
-24 -54 0
-25 -55 0
-21 -56 0
-22 -57 0
-23 -58 0
-24 -59 0
-25 -60 0
-21 -96 0
-22 -97 0
-23 -98 0
-24 -99 0
-25 -100 0
-26 -31 0
-27 -32 0
-28 -33 0
-29 -34 0
-30 -35 0
-26 -51 0
-27 -52 0
-28 -53 0
-29 -54 0
-30 -55 0
-26 -61 0
-27 -62 0
-28 -63 0
-29 -64 0
-30 -65 0
-26 -76 0
-27 -77 0
-28 -78 0
-29 -79 0
-30 -80 0
-26 -96 0
-27 -97 0
-28 -98 0
-29 -99 0
-30 -100 0
-31 -36 0
-32 -37 0
-33 -38 0
-34 -39 0
-35 -40 0
-31 -46 0
-32 -47 0
-33 -48 0
-34 -49 0
-35 -50 0
-31 -76 0
-32 -77 0
-33 -78 0
-34 -79 0
-35 -80 0
-31 -81 0
-32 -82 0
-33 -83 0
-34 -84 0
-35 -85 0
-36 -46 0
-37 -47 0
-38 -48 0
-39 -49 0
-40 -50 0
-36 -51 0
-37 -52 0
-38 -53 0
-39 -54 0
-40 -55 0
-36 -61 0
-37 -62 0
-38 -63 0
-39 -64 0
-40 -65 0
-36 -66 0
-37 -67 0
-38 -68 0
-39 -69 0
-40 -70 0
-36 -76 0
-37 -77 0
-38 -78 0
-39 -79 0
-40 -80 0
-41 -56 0
-42 -57 0
-43 -58 0
-44 -59 0
-45 -60 0
-41 -66 0
-42 -67 0
-43 -68 0
-44 -69 0
-45 -70 0
-41 -86 0
-42 -87 0
-43 -88 0
-44 -89 0
-45 -90 0
-46 -51 0
-47 -52 0
-48 -53 0
-49 -54 0
-50 -55 0
-46 -76 0
-47 -77 0
-48 -78 0
-49 -79 0
-50 -80 0
-46 -81 0
-47 -82 0
-48 -83 0
-49 -84 0
-50 -85 0
-46 -96 0
-47 -97 0
-48 -98 0
-49 -99 0
-50 -100 0
-51 -61 0
-52 -62 0
-53 -63 0
-54 -64 0
-55 -65 0
-51 -66 0
-52 -67 0
-53 -68 0
-54 -69 0
-55 -70 0
-51 -71 0
-52 -72 0
-53 -73 0
-54 -74 0
-55 -75 0
-51 -86 0
-52 -87 0
-53 -88 0
-54 -89 0
-55 -90 0
-56 -61 0
-57 -62 0
-58 -63 0
-59 -64 0
-60 -65 0
-56 -66 0
-57 -67 0
-58 -68 0
-59 -69 0
-60 -70 0
-56 -71 0
-57 -72 0
-58 -73 0
-59 -74 0
-60 -75 0
-56 -86 0
-57 -87 0
-58 -88 0
-59 -89 0
-60 -90 0
-56 -91 0
-57 -92 0
-58 -93 0
-59 -94 0
-60 -95 0
-61 -71 0
-62 -72 0
-63 -73 0
-64 -74 0
-65 -75 0
-66 -71 0
-67 -72 0
-68 -73 0
-69 -74 0
-70 -75 0
-66 -76 0
-67 -77 0
-68 -78 0
-69 -79 0
-70 -80 0
-66 -86 0
-67 -87 0
-68 -88 0
-69 -89 0
-70 -90 0
-66 -91 0
-67 -92 0
-68 -93 0
-69 -94 0
-70 -95 0
-66 -96 0
-67 -97 0
-68 -98 0
-69 -99 0
-70 -100 0
-71 -76 0
-72 -77 0
-73 -78 0
-74 -79 0
-75 -80 0
-71 -96 0
-72 -97 0
-73 -98 0
-74 -99 0
-75 -100 0
-76 -96 0
-77 -97 0
-78 -98 0
-79 -99 0
-80 -100 0
-81 -91 0
-82 -92 0
-83 -93 0
-84 -94 0
-85 -95 0
-91 -96 0
-92 -97 0
-93 -98 0
-94 -99 0
-95 -100 0
